20 43
11 19 2
6 11 2
6 7 3
6 19 3
4 11 1
4 6 3
4 7 3
4 19 1
7 11 1
7 19 1
10 14 3
10 19 5
2 10 1
2 14 1
2 5 3
2 9 5
5 10 2
5 14 1
5 9 5
9 10 2
9 14 3
9 16 3
16 17 1
1 16 4
1 17 3
1 3 4
1 15 4
3 16 2
3 17 1
3 15 3
15 16 1
15 17 4
12 18 4
12 20 5
12 13 4
12 15 3
8 12 2
8 18 2
8 20 3
8 13 4
18 20 5
13 18 1
13 20 5
